CPXPARAM_Read_DataCheck                          1
Found incumbent of value 0.000000 after 0.00 sec. (0.12 ticks)
Tried aggregator 1 time.
MIP Presolve eliminated 7 rows and 0 columns.
MIP Presolve modified 1 coefficients.
Reduced MIP has 342 rows, 4515 columns, and 20451 nonzeros.
Reduced MIP has 4515 binaries, 0 generals, 0 SOSs, and 0 indicators.
Presolve time = 0.00 sec. (7.92 ticks)
Tried aggregator 1 time.
Reduced MIP has 342 rows, 4515 columns, and 20451 nonzeros.
Reduced MIP has 4515 binaries, 0 generals, 0 SOSs, and 0 indicators.
Presolve time = 0.00 sec. (8.82 ticks)
Probing time = 0.02 sec. (4.12 ticks)
Clique table members: 14791.
MIP emphasis: balance optimality and feasibility.
MIP search method: dynamic search.
Parallel mode: deterministic, using up to 4 threads.
Root relaxation solution time = 0.00 sec. (15.93 ticks)

        Nodes                                         Cuts/
   Node  Left     Objective  IInf  Best Integer    Best Bound    ItCnt     Gap

*     0+    0                            0.0000    27742.0000              --- 
*     0+    0                         6066.0000    27742.0000           357.34%
      0     0    16754.1133    15     6066.0000    16754.1133      754  176.20%
*     0+    0                        11008.0000    16754.1133            52.20%
      0     0    16696.7967    15    11008.0000  Cliques: 185      791   32.36%
*     0+    0                        11325.0000    14569.9356            28.65%
      0     0    16692.7300    15    11325.0000  Cliques: 185      798   20.16%
      0     2    16692.7300    15    11325.0000    13315.4400      798   17.58%
Elapsed time = 0.63 sec. (338.37 ticks, tree = 0.01 MB, solutions = 4)
    400   139        cutoff          11325.0000    13011.8533    10085   14.89%

Clique cuts applied:  368
Implied bound cuts applied:  2

Root node processing (before b&c):
  Real time             =    0.61 sec. (337.53 ticks)
Parallel b&c, 4 threads:
  Real time             =    0.59 sec. (336.61 ticks)
  Sync time (average)   =    0.06 sec.
  Wait time (average)   =    0.00 sec.
                          ------------
Total (root+branch&cut) =    1.20 sec. (674.15 ticks)
